\* The Assortment Problem *\
Maximize
OBJ: 9.5 Lp_w_1 + 9 Lp_w_2 + 7 Lp_w_3 + 4.5 Lp_w_4
Subject To
_C1: Lp_w_0 + Lp_w_1 + Lp_w_2 + Lp_w_3 + Lp_w_4 = 1
_C2: - 0.3 Lp_w_0 + Lp_w_1 <= 0
_C3: - 0.6 Lp_w_0 + Lp_w_2 <= 0
_C4: - 0.3 Lp_w_0 + Lp_w_3 <= 0
_C5: - 5.2 Lp_w_0 + Lp_w_4 <= 0
_C6: 3.33333333333 Lp_w_1 + 1.66666666667 Lp_w_2 + 3.33333333333 Lp_w_3
 + 0.192307692308 Lp_w_4 <= 4
End
